100
128
51
40
40
55
62
20
64
61
47
27
40
17
6
6
11
10
46
14
30
56
18
45
42
48
34
18
26
46
46
55
41
38
19
33
10
34
19
33
35
10
16
58
28
10
9
53
6
10
21
11
15
12
2
50
48
26
10
28
42
14
32
10
15
14
38
14
34
5
18
28
54
45
29
10
2
36
28
13
12
43
1
23
2
10
45
16
31
20
1
14
42
21
20
40
28
30
38
30
38
52